benchmarks/bfuzz0/773230950293053811817653830991838.smt2
(set-logic QF_FP)
(declare-const x0 (_ FloatingPoint 8 24))
(declare-const x1 (_ FloatingPoint 8 24))
(declare-const x2 (_ FloatingPoint 8 24))
(declare-const x3 (_ FloatingPoint 8 24))
(declare-const x4 (_ FloatingPoint 8 24))
(declare-const x5 (_ FloatingPoint 8 24))
(declare-const x6 (_ FloatingPoint 8 24))
(declare-const x7 (_ FloatingPoint 8 24))
(declare-const x8 (_ FloatingPoint 8 24))
(declare-const x9 (_ FloatingPoint 8 24))
(declare-const x10 (_ FloatingPoint 8 24))
(declare-const x11 (_ FloatingPoint 8 24))
(declare-const x12 (_ FloatingPoint 8 24))
(declare-const x13 (_ FloatingPoint 8 24))
(declare-const x14 (_ FloatingPoint 8 24))
(declare-const x15 (_ FloatingPoint 8 24))
(declare-const x16 (_ FloatingPoint 8 24))
(assert (fp.geq (fp.mul RNE x9 x8) (fp.mul RNE x2 x12)))
(assert (fp.eq (fp.add RNE x4 x15) (fp.add RNE x12 x16)))
(assert (fp.geq (fp.sub RNE x0 x15) (fp.mul RNE x4 x14)))
(assert (fp.leq (fp.mul RNE x7 x10) (fp.neg x16)))
(assert (fp.lt (fp.div RNE x5 x2) (fp.div RNE x4 x0)))
(assert (fp.eq (fp.sub RNE x14 x6) (fp.div RNE x10 x1)))
(assert (fp.eq (fp.add RNE x7 x10) (fp.div RNE x3 x4)))
(assert (fp.leq (fp.neg x5) (fp.add RNE x0 x14)))
(assert (fp.lt (fp.div RNE x7 x0) (fp.neg x13)))
(assert (fp.geq (fp.div RNE x1 x0) (fp.div RNE x13 x8)))
(assert (fp.gt (fp.neg x12) (fp.div RNE x13 x9)))
(assert (fp.lt (fp.div RNE x4 x11) (fp.neg x7)))
(assert (fp.lt (fp.mul RNE x1 x5) (fp.mul RNE x11 x10)))
(assert (fp.geq (fp.mul RNE x8 x12) (fp.add RNE x11 x3)))
(assert (fp.gt (fp.sub RNE x4 x16) (fp.neg x2)))
(assert (fp.gt (fp.div RNE x0 x5) (fp.neg x6)))
(assert (fp.gt (fp.div RNE x13 x13) (fp.sub RNE x1 x10)))
(check-sat)
