db/data/773230950293053811817653830991838.z3.out
sat
-------------------
312.660734074
